GeneratedTests/Random_8/Random_8_9.tsp
NAME: Random_8_9
TYPE: TSP
DIMENSION: 8
EDGE_WEIGHT_TYPE: EUC_2D
NODE_COORD_SECTION
1 11.870472 6.1999154
2 9.587017 20.07131
3 8.665955 3.8908982
4 7.615411 1.6015935
5 6.3895383 6.1204777
6 7.2622404 0.61512136
7 18.202415 13.725828
8 7.1508937 10.144882
EOF
