GeneratedTests/Random_8/Random_8_9.txt
NAME: Random_8_9
TYPE: TSP
DIMENSION: 8
EDGE_WEIGHT_TYPE: EUC_2D
NODE_COORD_SECTION
1 19.93672 22.35216
2 14.789243 10.959057
3 4.4215407 20.510859
4 20.96766 0.9740381
5 2.757155 16.715061
6 11.932348 3.4501219
7 5.129112 16.844734
8 6.9904633 14.205841
EOF
